data/solutions/recovery/wellformed/intermediate/binding/wellformed_intermediate_instance73/4.sol
Elapsed time: 0.07
Upper bound: 4008.0
Planning weighted value: 220435670.0
C[0]=4008.0
C[1]=3998.0
C[2]=3957.0
C[3]=3824.0
C[4]=3805.0
C[5]=3772.0
C[6]=3621.0
C[7]=3615.0
C[8]=3554.0
C[9]=3548.0
C[10]=3513.0
C[11]=3512.0
C[12]=3503.0
C[13]=3236.0
C[14]=3096.0
C[15]=0.0
y[0]=1
y[1]=2
y[2]=8
y[3]=10
y[4]=5
y[5]=11
y[6]=13
y[7]=5
y[8]=12
y[9]=1
y[10]=12
y[11]=8
y[12]=3
y[13]=8
y[14]=11
y[15]=10
y[16]=9
y[17]=4
y[18]=5
y[19]=0
y[20]=13
y[21]=2
y[22]=4
y[23]=4
y[24]=7
y[25]=6
y[26]=12
y[27]=7
y[28]=6
y[29]=9
y[30]=9
y[31]=4
y[32]=0
y[33]=6
y[34]=11
y[35]=0
y[36]=9
y[37]=6
y[38]=6
y[39]=6
y[40]=3
y[41]=12
y[42]=8
y[43]=10
y[44]=9
y[45]=4
y[46]=14
y[47]=8
y[48]=6
y[49]=9
y[50]=5
y[51]=3
y[52]=1
y[53]=14
y[54]=0
y[55]=11
y[56]=7
y[57]=13
y[58]=1
y[59]=0
y[60]=6
y[61]=12
y[62]=13
y[63]=5
y[64]=7
y[65]=4
y[66]=9
y[67]=2
y[68]=5
y[69]=12
y[70]=13
y[71]=6
y[72]=4
y[73]=13
y[74]=11
y[75]=14
y[76]=12
y[77]=14
y[78]=6
y[79]=8
y[80]=10
y[81]=8
y[82]=9
y[83]=1
y[84]=7
y[85]=1
y[86]=10
y[87]=11
y[88]=11
y[89]=3
y[90]=3
y[91]=6
y[92]=2
y[93]=14
y[94]=6
y[95]=0
y[96]=5
y[97]=13
y[98]=11
y[99]=6
y[100]=2
y[101]=7
y[102]=8
y[103]=12
y[104]=0
y[105]=6
y[106]=13
y[107]=3
